17
L-threonine
C      0.000000     0.000000     0.000000
C      1.540000     0.000000     0.000000
N     -0.489666    -1.384987     0.000000
C     -0.508333     0.718892    -1.245157
H     -0.363333     0.513831     0.889981
C      2.053333     1.451926     0.000000
O      2.015666    -0.672694     1.165141
H      1.903333    -0.513831    -0.889981
H      2.982527    -0.664499     1.150946
H      1.689999     1.965756    -0.889982
H      3.143333     1.451926     0.000000
H      1.689999     1.965757     0.889981
H     -0.151666    -1.862990     0.827928
H     -0.151666    -1.862990    -0.827928
O     -0.275301     1.874298    -1.531692
O     -1.260084    -0.086821    -2.007586
H     -1.536396     0.445487    -2.766129
